
******************************************************************************
This program contains Ipopt, a library for large-scale nonlinear optimization.
 Ipopt is released as open source code under the Eclipse Public License (EPL).
         For more information visit http://projects.coin-or.org/Ipopt
******************************************************************************

This is Ipopt version 3.12.6, running with linear solver ma57.

Number of nonzeros in equality constraint Jacobian...:      866
Number of nonzeros in inequality constraint Jacobian.:      640
Number of nonzeros in Lagrangian Hessian.............:      490

Total number of variables............................:      128
                     variables with only lower bounds:        0
                variables with lower and upper bounds:       71
                     variables with only upper bounds:        0
Total number of equality constraints.................:      114
Total number of inequality constraints...............:      160
        inequality constraints with only lower bounds:        0
   inequality constraints with lower and upper bounds:        0
        inequality constraints with only upper bounds:      160

iter    objective    inf_pr   inf_du lg(mu)  ||d||  lg(rg) alpha_du alpha_pr  ls
   0  2.7987028e+04 3.49e+00 3.05e+00  -1.0 0.00e+00    -  0.00e+00 0.00e+00   0
   1  3.0453358e+04 2.83e+00 4.65e+00  -1.0 3.42e+00  -4.0 6.17e-02 1.88e-01h  1
   2  3.2847220e+04 2.22e+00 1.72e+01  -1.0 2.39e+00    -  3.65e-01 2.22e-01h  1
   3  4.1745191e+04 2.19e-03 3.65e+01  -1.0 1.45e+00    -  4.04e-01 1.00e+00H  1
   4  4.1749738e+04 3.94e-04 8.73e+00  -1.0 7.18e-02  -4.5 8.35e-01 1.00e+00h  1
   5  4.1746665e+04 1.31e-04 9.21e-02  -1.0 7.08e-02    -  9.90e-01 1.00e+00f  1
   6  4.1746932e+04 1.28e-06 3.02e-04  -1.0 4.57e-03  -5.0 1.00e+00 1.00e+00h  1
   7  4.1742164e+04 1.51e-04 4.73e+00  -2.5 9.01e-02    -  8.28e-01 1.00e+00f  1
   8  4.1738544e+04 1.12e-04 8.42e-01  -2.5 5.24e-02    -  9.82e-01 9.00e-01h  1
   9  4.1738132e+04 2.52e-05 1.49e-03  -2.5 1.85e-02  -5.4 1.00e+00 1.00e+00h  1
iter    objective    inf_pr   inf_du lg(mu)  ||d||  lg(rg) alpha_du alpha_pr  ls
  10  4.1737791e+04 1.21e-05 7.93e-04  -3.8 1.23e-02    -  1.00e+00 1.00e+00h  1
  11  4.1737785e+04 1.88e-06 2.05e-03  -5.7 5.51e-03  -5.9 1.00e+00 9.96e-01h  1
  12  4.1737787e+04 3.82e-08 2.45e-06  -5.7 8.11e-04    -  1.00e+00 1.00e+00h  1
  13  4.1737787e+04 6.15e-11 4.11e-09  -8.6 1.63e-03    -  1.00e+00 1.00e+00h  1

Number of Iterations....: 13

                                   (scaled)                 (unscaled)
Objective...............:   1.0434441048696040e+03    4.1737787150554468e+04
Dual infeasibility......:   4.1082698311975828e-09    1.6433088362983961e-07
Constraint violation....:   6.1508131921073073e-11    6.1508131921073073e-11
Complementarity.........:   6.7420036516018026e-09    2.6968029438815245e-07
Overall NLP error.......:   6.7420036516018026e-09    2.6968029438815245e-07


Number of objective function evaluations             = 15
Number of objective gradient evaluations             = 14
Number of equality constraint evaluations            = 15
Number of inequality constraint evaluations          = 15
Number of equality constraint Jacobian evaluations   = 14
Number of inequality constraint Jacobian evaluations = 14
Number of Lagrangian Hessian evaluations             = 13
Total CPU secs in IPOPT (w/o function evaluations)   =      0.020
Total CPU secs in NLP function evaluations           =      0.010

EXIT: Optimal Solution Found.

************************ CUTEst statistics ************************


 Package used            :  IPOPT
 Problem                 :  ACOPP57   
 # variables             =             128
 # constraints           =             274
 # objective functions   =        0.3000000E+02
 # objective gradients   =        0.1500000E+02
 # objective Hessians    =        0.1400000E+02
 # Hessian-vector prdct  =        0.0000000E+00
 # constraints functions =        0.3100000E+02
 # constraints gradients =        0.1600000E+02
 # constraints Hessians  =        0.1400000E+02
 Exit code               =               0
 Final f                 =   0.4173779E+05
 Set up time             =            0.01 seconds
 Solve time              =            0.10 seconds


******************************************************************

System Time =       0.0240000002 s.
